DATASET = "thpack5";
INSTANCE = "061";

WIDTH = 233;
HEIGHT = 220;
LENGTH = 587;

NO_OF_SHAPES = 12;
size = [|
  109,68,64 |
  84,58,55 |
  96,83,24 |
  74,67,37 |
  107,73,70 |
  80,73,54 |
  72,41,33 |
  84,79,74 |
  40,37,20 |
  74,73,42 |
  55,48,33 |
  109,74,70 |
|];

verticality = [|
  1,1,1 |
  1,1,1 |
  0,0,1 |
  0,1,1 |
  1,1,1 |
  1,1,1 |
  0,1,1 |
  1,1,1 |
  0,1,1 |
  1,1,1 |
  1,1,1 |
  1,1,1 |
|];

box_count = [
  5,
  5,
  8,
  11,
  7,
  7,
  13,
  6,
  12,
  6,
  9,
  17,
];
